NAME matlab
ROWS
 N  OBJ
 E  R0      
 E  R1      
 E  R2      
 E  R3      
 E  R4      
 E  R5      
 E  R6      
 E  R7      
 E  R8      
 E  R9      
 E  R10     
 E  R11     
 E  R12     
 E  R13     
 E  R14     
 E  R15     
 E  R16     
 E  R17     
 E  R18     
 E  R19     
 E  R20     
 E  R21     
 E  R22     
 E  R23     
 E  R24     
 E  R25     
 E  R26     
 E  R27     
 E  R28     
 E  R29     
 E  R30     
 E  R31     
 E  R32     
 E  R33     
 E  R34     
 E  R35     
 E  R36     
 E  R37     
 E  R38     
 E  R39     
 E  R40     
 E  R41     
 E  R42     
 E  R43     
 E  R44     
 E  R45     
 E  R46     
 E  R47     
 E  R48     
 E  R49     
 E  R50     
 E  R51     
 E  R52     
 E  R53     
 E  R54     
 E  R55     
 E  R56     
 E  R57     
 E  R58     
 E  R59     
 E  R60     
 E  R61     
 E  R62     
 E  R63     
 E  R64     
 E  R65     
 E  R66     
 E  R67     
 E  R68     
 E  R69     
 E  R70     
 E  R71     
 E  R72     
 E  R73     
 E  R74     
 E  R75     
 E  R76     
 E  R77     
 E  R78     
 E  R79     
 E  R80     
 E  R81     
 E  R82     
 E  R83     
 E  R84     
 E  R85     
 E  R86     
 E  R87     
 E  R88     
 E  R89     
 E  R90     
 E  R91     
 E  R92     
 E  R93     
 E  R94     
 E  R95     
COLUMNS
    C0        OBJ       1
    C0        R0        -1
    C0        R48       1
    C1        OBJ       1
    C1        R1        -1
    C1        R49       1
    C2        OBJ       1
    C2        R2        -1
    C2        R50       1
    C3        OBJ       1
    C3        R3        -1
    C3        R51       1
    C4        OBJ       1
    C4        R4        -1
    C4        R52       1
    C5        OBJ       1
    C5        R5        -1
    C5        R53       1
    C6        OBJ       1
    C6        R6        -1
    C6        R54       1
    C7        OBJ       1
    C7        R7        -1
    C7        R55       1
    C8        OBJ       1
    C8        R8        -1
    C8        R56       1
    C9        OBJ       1
    C9        R9        -1
    C9        R57       1
    C10       OBJ       1
    C10       R10       -1
    C10       R58       1
    C11       OBJ       1
    C11       R11       -1
    C11       R59       1
    C12       OBJ       1
    C12       R12       -1
    C12       R60       1
    C13       OBJ       1
    C13       R13       -1
    C13       R61       1
    C14       OBJ       1
    C14       R14       -1
    C14       R62       1
    C15       OBJ       1
    C15       R15       -1
    C15       R63       1
    C16       OBJ       1
    C16       R16       -1
    C16       R64       1
    C17       OBJ       1
    C17       R17       -1
    C17       R65       1
    C18       OBJ       1
    C18       R18       -1
    C18       R66       1
    C19       OBJ       1
    C19       R19       -1
    C19       R67       1
    C20       OBJ       1
    C20       R20       -1
    C20       R68       1
    C21       OBJ       1
    C21       R21       -1
    C21       R69       1
    C22       OBJ       1
    C22       R22       -1
    C22       R70       1
    C23       OBJ       1
    C23       R23       -1
    C23       R71       1
    C24       OBJ       1
    C24       R24       -1
    C24       R72       1
    C25       OBJ       1
    C25       R25       -1
    C25       R73       1
    C26       OBJ       1
    C26       R26       -1
    C26       R74       1
    C27       OBJ       1
    C27       R27       -1
    C27       R75       1
    C28       OBJ       1
    C28       R28       -1
    C28       R76       1
    C29       OBJ       1
    C29       R29       -1
    C29       R77       1
    C30       OBJ       1
    C30       R30       -1
    C30       R78       1
    C31       OBJ       1
    C31       R31       -1
    C31       R79       1
    C32       OBJ       1
    C32       R32       -1
    C32       R80       1
    C33       OBJ       1
    C33       R33       -1
    C33       R81       1
    C34       OBJ       1
    C34       R34       -1
    C34       R82       1
    C35       OBJ       1
    C35       R35       -1
    C35       R83       1
    C36       OBJ       1
    C36       R36       -1
    C36       R84       1
    C37       OBJ       1
    C37       R37       -1
    C37       R85       1
    C38       OBJ       1
    C38       R38       -1
    C38       R86       1
    C39       OBJ       1
    C39       R39       -1
    C39       R87       1
    C40       OBJ       1
    C40       R40       -1
    C40       R88       1
    C41       OBJ       1
    C41       R41       -1
    C41       R89       1
    C42       OBJ       1
    C42       R42       -1
    C42       R90       1
    C43       OBJ       1
    C43       R43       -1
    C43       R91       1
    C44       OBJ       1
    C44       R44       -1
    C44       R92       1
    C45       OBJ       1
    C45       R45       -1
    C45       R93       1
    C46       OBJ       1
    C46       R46       -1
    C46       R94       1
    C47       OBJ       1
    C47       R47       -1
    C47       R95       1
    C48       OBJ       1
    C48       R0        1
    C49       OBJ       23
    C49       R0        1
    C50       OBJ       60
    C50       R0        1
    C51       OBJ       30
    C51       R0        1
    C52       OBJ       110
    C52       R0        1
    C53       OBJ       34
    C53       R0        1
    C54       OBJ       1
    C54       R1        1
    C55       OBJ       23
    C55       R1        1
    C56       OBJ       60
    C56       R1        1
    C57       OBJ       30
    C57       R1        1
    C58       OBJ       110
    C58       R1        1
    C59       OBJ       34
    C59       R1        1
    C60       OBJ       1
    C60       R2        1
    C61       OBJ       23
    C61       R2        1
    C62       OBJ       60
    C62       R2        1
    C63       OBJ       30
    C63       R2        1
    C64       OBJ       110
    C64       R2        1
    C65       OBJ       34
    C65       R2        1
    C66       OBJ       1
    C66       R3        1
    C67       OBJ       23
    C67       R3        1
    C68       OBJ       60
    C68       R3        1
    C69       OBJ       30
    C69       R3        1
    C70       OBJ       110
    C70       R3        1
    C71       OBJ       34
    C71       R3        1
    C72       OBJ       1
    C72       R4        1
    C73       OBJ       23
    C73       R4        1
    C74       OBJ       60
    C74       R4        1
    C75       OBJ       30
    C75       R4        1
    C76       OBJ       110
    C76       R4        1
    C77       OBJ       34
    C77       R4        1
    C78       OBJ       1
    C78       R5        1
    C79       OBJ       23
    C79       R5        1
    C80       OBJ       60
    C80       R5        1
    C81       OBJ       30
    C81       R5        1
    C82       OBJ       110
    C82       R5        1
    C83       OBJ       34
    C83       R5        1
    C84       OBJ       1
    C84       R6        1
    C85       OBJ       23
    C85       R6        1
    C86       OBJ       60
    C86       R6        1
    C87       OBJ       30
    C87       R6        1
    C88       OBJ       110
    C88       R6        1
    C89       OBJ       34
    C89       R6        1
    C90       OBJ       1
    C90       R7        1
    C91       OBJ       23
    C91       R7        1
    C92       OBJ       60
    C92       R7        1
    C93       OBJ       30
    C93       R7        1
    C94       OBJ       110
    C94       R7        1
    C95       OBJ       34
    C95       R7        1
    C96       OBJ       1
    C96       R8        1
    C97       OBJ       23
    C97       R8        1
    C98       OBJ       60
    C98       R8        1
    C99       OBJ       30
    C99       R8        1
    C100      OBJ       110
    C100      R8        1
    C101      OBJ       34
    C101      R8        1
    C102      OBJ       1
    C102      R9        1
    C103      OBJ       23
    C103      R9        1
    C104      OBJ       60
    C104      R9        1
    C105      OBJ       30
    C105      R9        1
    C106      OBJ       110
    C106      R9        1
    C107      OBJ       34
    C107      R9        1
    C108      OBJ       1
    C108      R10       1
    C109      OBJ       23
    C109      R10       1
    C110      OBJ       60
    C110      R10       1
    C111      OBJ       30
    C111      R10       1
    C112      OBJ       110
    C112      R10       1
    C113      OBJ       34
    C113      R10       1
    C114      OBJ       1
    C114      R11       1
    C115      OBJ       23
    C115      R11       1
    C116      OBJ       60
    C116      R11       1
    C117      OBJ       30
    C117      R11       1
    C118      OBJ       110
    C118      R11       1
    C119      OBJ       34
    C119      R11       1
    C120      OBJ       1
    C120      R12       1
    C121      OBJ       23
    C121      R12       1
    C122      OBJ       60
    C122      R12       1
    C123      OBJ       30
    C123      R12       1
    C124      OBJ       110
    C124      R12       1
    C125      OBJ       34
    C125      R12       1
    C126      OBJ       1
    C126      R13       1
    C127      OBJ       23
    C127      R13       1
    C128      OBJ       60
    C128      R13       1
    C129      OBJ       30
    C129      R13       1
    C130      OBJ       110
    C130      R13       1
    C131      OBJ       34
    C131      R13       1
    C132      OBJ       1
    C132      R14       1
    C133      OBJ       23
    C133      R14       1
    C134      OBJ       60
    C134      R14       1
    C135      OBJ       30
    C135      R14       1
    C136      OBJ       110
    C136      R14       1
    C137      OBJ       34
    C137      R14       1
    C138      OBJ       1
    C138      R15       1
    C139      OBJ       23
    C139      R15       1
    C140      OBJ       60
    C140      R15       1
    C141      OBJ       30
    C141      R15       1
    C142      OBJ       110
    C142      R15       1
    C143      OBJ       34
    C143      R15       1
    C144      OBJ       1
    C144      R16       1
    C145      OBJ       23
    C145      R16       1
    C146      OBJ       60
    C146      R16       1
    C147      OBJ       30
    C147      R16       1
    C148      OBJ       110
    C148      R16       1
    C149      OBJ       34
    C149      R16       1
    C150      OBJ       1
    C150      R17       1
    C151      OBJ       23
    C151      R17       1
    C152      OBJ       60
    C152      R17       1
    C153      OBJ       30
    C153      R17       1
    C154      OBJ       110
    C154      R17       1
    C155      OBJ       34
    C155      R17       1
    C156      OBJ       1
    C156      R18       1
    C157      OBJ       23
    C157      R18       1
    C158      OBJ       60
    C158      R18       1
    C159      OBJ       30
    C159      R18       1
    C160      OBJ       110
    C160      R18       1
    C161      OBJ       34
    C161      R18       1
    C162      OBJ       1
    C162      R19       1
    C163      OBJ       23
    C163      R19       1
    C164      OBJ       60
    C164      R19       1
    C165      OBJ       30
    C165      R19       1
    C166      OBJ       110
    C166      R19       1
    C167      OBJ       34
    C167      R19       1
    C168      OBJ       1
    C168      R20       1
    C169      OBJ       23
    C169      R20       1
    C170      OBJ       60
    C170      R20       1
    C171      OBJ       30
    C171      R20       1
    C172      OBJ       110
    C172      R20       1
    C173      OBJ       34
    C173      R20       1
    C174      OBJ       1
    C174      R21       1
    C175      OBJ       23
    C175      R21       1
    C176      OBJ       60
    C176      R21       1
    C177      OBJ       30
    C177      R21       1
    C178      OBJ       110
    C178      R21       1
    C179      OBJ       34
    C179      R21       1
    C180      OBJ       1
    C180      R22       1
    C181      OBJ       23
    C181      R22       1
    C182      OBJ       60
    C182      R22       1
    C183      OBJ       30
    C183      R22       1
    C184      OBJ       110
    C184      R22       1
    C185      OBJ       34
    C185      R22       1
    C186      OBJ       1
    C186      R23       1
    C187      OBJ       23
    C187      R23       1
    C188      OBJ       60
    C188      R23       1
    C189      OBJ       30
    C189      R23       1
    C190      OBJ       110
    C190      R23       1
    C191      OBJ       34
    C191      R23       1
    C192      OBJ       1
    C192      R24       1
    C193      OBJ       23
    C193      R24       1
    C194      OBJ       60
    C194      R24       1
    C195      OBJ       30
    C195      R24       1
    C196      OBJ       110
    C196      R24       1
    C197      OBJ       32
    C197      R24       1
    C198      OBJ       1
    C198      R25       1
    C199      OBJ       23
    C199      R25       1
    C200      OBJ       60
    C200      R25       1
    C201      OBJ       30
    C201      R25       1
    C202      OBJ       110
    C202      R25       1
    C203      OBJ       32
    C203      R25       1
    C204      OBJ       1
    C204      R26       1
    C205      OBJ       23
    C205      R26       1
    C206      OBJ       60
    C206      R26       1
    C207      OBJ       30
    C207      R26       1
    C208      OBJ       110
    C208      R26       1
    C209      OBJ       32
    C209      R26       1
    C210      OBJ       1
    C210      R27       1
    C211      OBJ       23
    C211      R27       1
    C212      OBJ       60
    C212      R27       1
    C213      OBJ       30
    C213      R27       1
    C214      OBJ       110
    C214      R27       1
    C215      OBJ       32
    C215      R27       1
    C216      OBJ       1
    C216      R28       1
    C217      OBJ       23
    C217      R28       1
    C218      OBJ       60
    C218      R28       1
    C219      OBJ       30
    C219      R28       1
    C220      OBJ       110
    C220      R28       1
    C221      OBJ       32
    C221      R28       1
    C222      OBJ       1
    C222      R29       1
    C223      OBJ       23
    C223      R29       1
    C224      OBJ       60
    C224      R29       1
    C225      OBJ       30
    C225      R29       1
    C226      OBJ       110
    C226      R29       1
    C227      OBJ       32
    C227      R29       1
    C228      OBJ       1
    C228      R30       1
    C229      OBJ       23
    C229      R30       1
    C230      OBJ       60
    C230      R30       1
    C231      OBJ       30
    C231      R30       1
    C232      OBJ       110
    C232      R30       1
    C233      OBJ       32
    C233      R30       1
    C234      OBJ       1
    C234      R31       1
    C235      OBJ       23
    C235      R31       1
    C236      OBJ       60
    C236      R31       1
    C237      OBJ       30
    C237      R31       1
    C238      OBJ       110
    C238      R31       1
    C239      OBJ       32
    C239      R31       1
    C240      OBJ       1
    C240      R32       1
    C241      OBJ       23
    C241      R32       1
    C242      OBJ       60
    C242      R32       1
    C243      OBJ       30
    C243      R32       1
    C244      OBJ       110
    C244      R32       1
    C245      OBJ       32
    C245      R32       1
    C246      OBJ       1
    C246      R33       1
    C247      OBJ       23
    C247      R33       1
    C248      OBJ       60
    C248      R33       1
    C249      OBJ       30
    C249      R33       1
    C250      OBJ       110
    C250      R33       1
    C251      OBJ       32
    C251      R33       1
    C252      OBJ       1
    C252      R34       1
    C253      OBJ       23
    C253      R34       1
    C254      OBJ       60
    C254      R34       1
    C255      OBJ       30
    C255      R34       1
    C256      OBJ       110
    C256      R34       1
    C257      OBJ       32
    C257      R34       1
    C258      OBJ       1
    C258      R35       1
    C259      OBJ       23
    C259      R35       1
    C260      OBJ       60
    C260      R35       1
    C261      OBJ       30
    C261      R35       1
    C262      OBJ       110
    C262      R35       1
    C263      OBJ       32
    C263      R35       1
    C264      OBJ       1
    C264      R36       1
    C265      OBJ       23
    C265      R36       1
    C266      OBJ       60
    C266      R36       1
    C267      OBJ       30
    C267      R36       1
    C268      OBJ       110
    C268      R36       1
    C269      OBJ       32
    C269      R36       1
    C270      OBJ       1
    C270      R37       1
    C271      OBJ       23
    C271      R37       1
    C272      OBJ       60
    C272      R37       1
    C273      OBJ       30
    C273      R37       1
    C274      OBJ       110
    C274      R37       1
    C275      OBJ       32
    C275      R37       1
    C276      OBJ       1
    C276      R38       1
    C277      OBJ       23
    C277      R38       1
    C278      OBJ       60
    C278      R38       1
    C279      OBJ       30
    C279      R38       1
    C280      OBJ       110
    C280      R38       1
    C281      OBJ       32
    C281      R38       1
    C282      OBJ       1
    C282      R39       1
    C283      OBJ       23
    C283      R39       1
    C284      OBJ       60
    C284      R39       1
    C285      OBJ       30
    C285      R39       1
    C286      OBJ       110
    C286      R39       1
    C287      OBJ       32
    C287      R39       1
    C288      OBJ       1
    C288      R40       1
    C289      OBJ       23
    C289      R40       1
    C290      OBJ       60
    C290      R40       1
    C291      OBJ       30
    C291      R40       1
    C292      OBJ       110
    C292      R40       1
    C293      OBJ       32
    C293      R40       1
    C294      OBJ       1
    C294      R41       1
    C295      OBJ       23
    C295      R41       1
    C296      OBJ       60
    C296      R41       1
    C297      OBJ       30
    C297      R41       1
    C298      OBJ       110
    C298      R41       1
    C299      OBJ       32
    C299      R41       1
    C300      OBJ       1
    C300      R42       1
    C301      OBJ       23
    C301      R42       1
    C302      OBJ       60
    C302      R42       1
    C303      OBJ       30
    C303      R42       1
    C304      OBJ       110
    C304      R42       1
    C305      OBJ       32
    C305      R42       1
    C306      OBJ       1
    C306      R43       1
    C307      OBJ       23
    C307      R43       1
    C308      OBJ       60
    C308      R43       1
    C309      OBJ       30
    C309      R43       1
    C310      OBJ       110
    C310      R43       1
    C311      OBJ       32
    C311      R43       1
    C312      OBJ       1
    C312      R44       1
    C313      OBJ       23
    C313      R44       1
    C314      OBJ       60
    C314      R44       1
    C315      OBJ       30
    C315      R44       1
    C316      OBJ       110
    C316      R44       1
    C317      OBJ       32
    C317      R44       1
    C318      OBJ       1
    C318      R45       1
    C319      OBJ       23
    C319      R45       1
    C320      OBJ       60
    C320      R45       1
    C321      OBJ       30
    C321      R45       1
    C322      OBJ       110
    C322      R45       1
    C323      OBJ       32
    C323      R45       1
    C324      OBJ       1
    C324      R46       1
    C325      OBJ       23
    C325      R46       1
    C326      OBJ       60
    C326      R46       1
    C327      OBJ       30
    C327      R46       1
    C328      OBJ       110
    C328      R46       1
    C329      OBJ       32
    C329      R46       1
    C330      OBJ       1
    C330      R47       1
    C331      OBJ       23
    C331      R47       1
    C332      OBJ       60
    C332      R47       1
    C333      OBJ       30
    C333      R47       1
    C334      OBJ       110
    C334      R47       1
    C335      OBJ       32
    C335      R47       1
    C336      OBJ       1
    C336      R0        1
    C336      R72       -1
    C337      OBJ       1
    C337      R1        1
    C337      R73       -1
    C338      OBJ       1
    C338      R2        1
    C338      R74       -1
    C339      OBJ       1
    C339      R3        1
    C339      R75       -1
    C340      OBJ       1
    C340      R4        1
    C340      R76       -1
    C341      OBJ       1
    C341      R5        1
    C341      R77       -1
    C342      OBJ       1
    C342      R6        1
    C342      R78       -1
    C343      OBJ       1
    C343      R7        1
    C343      R79       -1
    C344      OBJ       1
    C344      R8        1
    C344      R80       -1
    C345      OBJ       1
    C345      R9        1
    C345      R81       -1
    C346      OBJ       1
    C346      R10       1
    C346      R82       -1
    C347      OBJ       1
    C347      R11       1
    C347      R83       -1
    C348      OBJ       1
    C348      R12       1
    C348      R84       -1
    C349      OBJ       1
    C349      R13       1
    C349      R85       -1
    C350      OBJ       1
    C350      R14       1
    C350      R86       -1
    C351      OBJ       1
    C351      R15       1
    C351      R87       -1
    C352      OBJ       1
    C352      R16       1
    C352      R88       -1
    C353      OBJ       1
    C353      R17       1
    C353      R89       -1
    C354      OBJ       1
    C354      R18       1
    C354      R90       -1
    C355      OBJ       1
    C355      R19       1
    C355      R91       -1
    C356      OBJ       1
    C356      R20       1
    C356      R92       -1
    C357      OBJ       1
    C357      R21       1
    C357      R93       -1
    C358      OBJ       1
    C358      R22       1
    C358      R94       -1
    C359      OBJ       1
    C359      R23       1
    C359      R95       -1
    C360      OBJ       1
    C360      R24       1
    C360      R48       -1
    C361      OBJ       1
    C361      R25       1
    C361      R49       -1
    C362      OBJ       1
    C362      R26       1
    C362      R50       -1
    C363      OBJ       1
    C363      R27       1
    C363      R51       -1
    C364      OBJ       1
    C364      R28       1
    C364      R52       -1
    C365      OBJ       1
    C365      R29       1
    C365      R53       -1
    C366      OBJ       1
    C366      R30       1
    C366      R54       -1
    C367      OBJ       1
    C367      R31       1
    C367      R55       -1
    C368      OBJ       1
    C368      R32       1
    C368      R56       -1
    C369      OBJ       1
    C369      R33       1
    C369      R57       -1
    C370      OBJ       1
    C370      R34       1
    C370      R58       -1
    C371      OBJ       1
    C371      R35       1
    C371      R59       -1
    C372      OBJ       1
    C372      R36       1
    C372      R60       -1
    C373      OBJ       1
    C373      R37       1
    C373      R61       -1
    C374      OBJ       1
    C374      R38       1
    C374      R62       -1
    C375      OBJ       1
    C375      R39       1
    C375      R63       -1
    C376      OBJ       1
    C376      R40       1
    C376      R64       -1
    C377      OBJ       1
    C377      R41       1
    C377      R65       -1
    C378      OBJ       1
    C378      R42       1
    C378      R66       -1
    C379      OBJ       1
    C379      R43       1
    C379      R67       -1
    C380      OBJ       1
    C380      R44       1
    C380      R68       -1
    C381      OBJ       1
    C381      R45       1
    C381      R69       -1
    C382      OBJ       1
    C382      R46       1
    C382      R70       -1
    C383      OBJ       1
    C383      R47       1
    C383      R71       -1
RHS
    RHS1      R0        20531
    RHS1      R1        20809
    RHS1      R2        21822
    RHS1      R3        24749
    RHS1      R4        26704
    RHS1      R5        28689
    RHS1      R6        29931
    RHS1      R7        30380
    RHS1      R8        28880
    RHS1      R9        27166
    RHS1      R10       25351
    RHS1      R11       24138
    RHS1      R12       24032
    RHS1      R13       23878
    RHS1      R14       24342
    RHS1      R15       24973
    RHS1      R16       28607
    RHS1      R17       33486
    RHS1      R18       38405
    RHS1      R19       45536
    RHS1      R20       51388
    RHS1      R21       54793
    RHS1      R22       56669
    RHS1      R23       57535
    RHS1      R24       8146
    RHS1      R25       8000
    RHS1      R26       7929
    RHS1      R27       7829
    RHS1      R28       7746
    RHS1      R29       8923
    RHS1      R30       8769
    RHS1      R31       8400
    RHS1      R32       7822
    RHS1      R33       7351
    RHS1      R34       6907
    RHS1      R35       6672
    RHS1      R36       6466
    RHS1      R37       6256
    RHS1      R38       6242
    RHS1      R39       6322
    RHS1      R40       6632
    RHS1      R41       6911
    RHS1      R42       7352
    RHS1      R43       7988
    RHS1      R44       8343
    RHS1      R45       8527
    RHS1      R46       8648
    RHS1      R47       8752
BOUNDS
 UP BND1      C0        1000
 UP BND1      C1        1000
 UP BND1      C2        1000
 UP BND1      C3        1000
 UP BND1      C4        1000
 UP BND1      C5        1000
 UP BND1      C6        1000
 UP BND1      C7        1000
 UP BND1      C8        1000
 UP BND1      C9        1000
 UP BND1      C10       1000
 UP BND1      C11       1000
 UP BND1      C12       1000
 UP BND1      C13       1000
 UP BND1      C14       1000
 UP BND1      C15       1000
 UP BND1      C16       1000
 UP BND1      C17       1000
 UP BND1      C18       1000
 UP BND1      C19       1000
 UP BND1      C20       1000
 UP BND1      C21       1000
 UP BND1      C22       1000
 UP BND1      C23       1000
 UP BND1      C24       1000
 UP BND1      C25       1000
 UP BND1      C26       1000
 UP BND1      C27       1000
 UP BND1      C28       1000
 UP BND1      C29       1000
 UP BND1      C30       1000
 UP BND1      C31       1000
 UP BND1      C32       1000
 UP BND1      C33       1000
 UP BND1      C34       1000
 UP BND1      C35       1000
 UP BND1      C36       1000
 UP BND1      C37       1000
 UP BND1      C38       1000
 UP BND1      C39       1000
 UP BND1      C40       1000
 UP BND1      C41       1000
 UP BND1      C42       1000
 UP BND1      C43       1000
 UP BND1      C44       1000
 UP BND1      C45       1000
 UP BND1      C46       1000
 UP BND1      C47       1000
 UP BND1      C48       7754
 UP BND1      C49       21205
 UP BND1      C50       31745
 UP BND1      C51       25293
 UP BND1      C52       4356
 UP BND1      C53       9516
 UP BND1      C54       7754
 UP BND1      C55       21205
 UP BND1      C56       31745
 UP BND1      C57       25293
 UP BND1      C58       4356
 UP BND1      C59       9516
 UP BND1      C60       7754
 UP BND1      C61       21205
 UP BND1      C62       31745
 UP BND1      C63       25293
 UP BND1      C64       4356
 UP BND1      C65       9516
 UP BND1      C66       7754
 UP BND1      C67       21205
 UP BND1      C68       31745
 UP BND1      C69       25293
 UP BND1      C70       4356
 UP BND1      C71       9516
 UP BND1      C72       7754
 UP BND1      C73       21205
 UP BND1      C74       31745
 UP BND1      C75       25293
 UP BND1      C76       4356
 UP BND1      C77       9516
 UP BND1      C78       7754
 UP BND1      C79       21205
 UP BND1      C80       31745
 UP BND1      C81       25293
 UP BND1      C82       4356
 UP BND1      C83       9516
 UP BND1      C84       7754
 UP BND1      C85       21205
 UP BND1      C86       31745
 UP BND1      C87       25293
 UP BND1      C88       4356
 UP BND1      C89       9516
 UP BND1      C90       7754
 UP BND1      C91       21205
 UP BND1      C92       31745
 UP BND1      C93       25293
 UP BND1      C94       4356
 UP BND1      C95       9516
 UP BND1      C96       7754
 UP BND1      C97       21205
 UP BND1      C98       31745
 UP BND1      C99       25293
 UP BND1      C100      4356
 UP BND1      C101      9516
 UP BND1      C102      7754
 UP BND1      C103      21205
 UP BND1      C104      31745
 UP BND1      C105      25293
 UP BND1      C106      4356
 UP BND1      C107      9516
 UP BND1      C108      7754
 UP BND1      C109      21205
 UP BND1      C110      31745
 UP BND1      C111      25293
 UP BND1      C112      4356
 UP BND1      C113      9516
 UP BND1      C114      7754
 UP BND1      C115      21205
 UP BND1      C116      31745
 UP BND1      C117      25293
 UP BND1      C118      4356
 UP BND1      C119      9516
 UP BND1      C120      7754
 UP BND1      C121      21205
 UP BND1      C122      31745
 UP BND1      C123      25293
 UP BND1      C124      4356
 UP BND1      C125      9516
 UP BND1      C126      7754
 UP BND1      C127      21205
 UP BND1      C128      31745
 UP BND1      C129      25293
 UP BND1      C130      4356
 UP BND1      C131      9516
 UP BND1      C132      7754
 UP BND1      C133      21205
 UP BND1      C134      31745
 UP BND1      C135      25293
 UP BND1      C136      4356
 UP BND1      C137      9516
 UP BND1      C138      7754
 UP BND1      C139      21205
 UP BND1      C140      31745
 UP BND1      C141      25293
 UP BND1      C142      4356
 UP BND1      C143      9516
 UP BND1      C144      7754
 UP BND1      C145      21205
 UP BND1      C146      31745
 UP BND1      C147      25293
 UP BND1      C148      4356
 UP BND1      C149      9516
 UP BND1      C150      7754
 UP BND1      C151      21205
 UP BND1      C152      31745
 UP BND1      C153      25293
 UP BND1      C154      4356
 UP BND1      C155      9516
 UP BND1      C156      7754
 UP BND1      C157      21205
 UP BND1      C158      31745
 UP BND1      C159      25293
 UP BND1      C160      4356
 UP BND1      C161      9516
 UP BND1      C162      7754
 UP BND1      C163      21205
 UP BND1      C164      31745
 UP BND1      C165      25293
 UP BND1      C166      4356
 UP BND1      C167      9516
 UP BND1      C168      7754
 UP BND1      C169      21205
 UP BND1      C170      31745
 UP BND1      C171      25293
 UP BND1      C172      4356
 UP BND1      C173      9516
 UP BND1      C174      7754
 UP BND1      C175      21205
 UP BND1      C176      31745
 UP BND1      C177      25293
 UP BND1      C178      4356
 UP BND1      C179      9516
 UP BND1      C180      7754
 UP BND1      C181      21205
 UP BND1      C182      31745
 UP BND1      C183      25293
 UP BND1      C184      4356
 UP BND1      C185      9516
 UP BND1      C186      7754
 UP BND1      C187      21205
 UP BND1      C188      31745
 UP BND1      C189      25293
 UP BND1      C190      4356
 UP BND1      C191      9516
 UP BND1      C192      708
 UP BND1      C193      534
 UP BND1      C194      6649
 UP BND1      C195      470
 UP BND1      C196      333
 UP BND1      C197      5931
 UP BND1      C198      708
 UP BND1      C199      534
 UP BND1      C200      6649
 UP BND1      C201      470
 UP BND1      C202      333
 UP BND1      C203      5931
 UP BND1      C204      708
 UP BND1      C205      534
 UP BND1      C206      6649
 UP BND1      C207      470
 UP BND1      C208      333
 UP BND1      C209      5931
 UP BND1      C210      708
 UP BND1      C211      534
 UP BND1      C212      6649
 UP BND1      C213      470
 UP BND1      C214      333
 UP BND1      C215      5931
 UP BND1      C216      708
 UP BND1      C217      534
 UP BND1      C218      6649
 UP BND1      C219      470
 UP BND1      C220      333
 UP BND1      C221      5931
 UP BND1      C222      708
 UP BND1      C223      534
 UP BND1      C224      6649
 UP BND1      C225      470
 UP BND1      C226      333
 UP BND1      C227      5931
 UP BND1      C228      708
 UP BND1      C229      534
 UP BND1      C230      6649
 UP BND1      C231      470
 UP BND1      C232      333
 UP BND1      C233      5931
 UP BND1      C234      708
 UP BND1      C235      534
 UP BND1      C236      6649
 UP BND1      C237      470
 UP BND1      C238      333
 UP BND1      C239      5931
 UP BND1      C240      708
 UP BND1      C241      534
 UP BND1      C242      6649
 UP BND1      C243      470
 UP BND1      C244      333
 UP BND1      C245      5931
 UP BND1      C246      708
 UP BND1      C247      534
 UP BND1      C248      6649
 UP BND1      C249      470
 UP BND1      C250      333
 UP BND1      C251      5931
 UP BND1      C252      708
 UP BND1      C253      534
 UP BND1      C254      6649
 UP BND1      C255      470
 UP BND1      C256      333
 UP BND1      C257      5931
 UP BND1      C258      708
 UP BND1      C259      534
 UP BND1      C260      6649
 UP BND1      C261      470
 UP BND1      C262      333
 UP BND1      C263      5931
 UP BND1      C264      708
 UP BND1      C265      534
 UP BND1      C266      6649
 UP BND1      C267      470
 UP BND1      C268      333
 UP BND1      C269      5931
 UP BND1      C270      708
 UP BND1      C271      534
 UP BND1      C272      6649
 UP BND1      C273      470
 UP BND1      C274      333
 UP BND1      C275      5931
 UP BND1      C276      708
 UP BND1      C277      534
 UP BND1      C278      6649
 UP BND1      C279      470
 UP BND1      C280      333
 UP BND1      C281      5931
 UP BND1      C282      708
 UP BND1      C283      534
 UP BND1      C284      6649
 UP BND1      C285      470
 UP BND1      C286      333
 UP BND1      C287      5931
 UP BND1      C288      708
 UP BND1      C289      534
 UP BND1      C290      6649
 UP BND1      C291      470
 UP BND1      C292      333
 UP BND1      C293      5931
 UP BND1      C294      708
 UP BND1      C295      534
 UP BND1      C296      6649
 UP BND1      C297      470
 UP BND1      C298      333
 UP BND1      C299      5931
 UP BND1      C300      708
 UP BND1      C301      534
 UP BND1      C302      6649
 UP BND1      C303      470
 UP BND1      C304      333
 UP BND1      C305      5931
 UP BND1      C306      708
 UP BND1      C307      534
 UP BND1      C308      6649
 UP BND1      C309      470
 UP BND1      C310      333
 UP BND1      C311      5931
 UP BND1      C312      708
 UP BND1      C313      534
 UP BND1      C314      6649
 UP BND1      C315      470
 UP BND1      C316      333
 UP BND1      C317      5931
 UP BND1      C318      708
 UP BND1      C319      534
 UP BND1      C320      6649
 UP BND1      C321      470
 UP BND1      C322      333
 UP BND1      C323      5931
 UP BND1      C324      708
 UP BND1      C325      534
 UP BND1      C326      6649
 UP BND1      C327      470
 UP BND1      C328      333
 UP BND1      C329      5931
 UP BND1      C330      708
 UP BND1      C331      534
 UP BND1      C332      6649
 UP BND1      C333      470
 UP BND1      C334      333
 UP BND1      C335      5931
 UP BND1      C336      1000
 UP BND1      C337      1000
 UP BND1      C338      1000
 UP BND1      C339      1000
 UP BND1      C340      1000
 UP BND1      C341      1000
 UP BND1      C342      1000
 UP BND1      C343      1000
 UP BND1      C344      1000
 UP BND1      C345      1000
 UP BND1      C346      1000
 UP BND1      C347      1000
 UP BND1      C348      1000
 UP BND1      C349      1000
 UP BND1      C350      1000
 UP BND1      C351      1000
 UP BND1      C352      1000
 UP BND1      C353      1000
 UP BND1      C354      1000
 UP BND1      C355      1000
 UP BND1      C356      1000
 UP BND1      C357      1000
 UP BND1      C358      1000
 UP BND1      C359      1000
 UP BND1      C360      1000
 UP BND1      C361      1000
 UP BND1      C362      1000
 UP BND1      C363      1000
 UP BND1      C364      1000
 UP BND1      C365      1000
 UP BND1      C366      1000
 UP BND1      C367      1000
 UP BND1      C368      1000
 UP BND1      C369      1000
 UP BND1      C370      1000
 UP BND1      C371      1000
 UP BND1      C372      1000
 UP BND1      C373      1000
 UP BND1      C374      1000
 UP BND1      C375      1000
 UP BND1      C376      1000
 UP BND1      C377      1000
 UP BND1      C378      1000
 UP BND1      C379      1000
 UP BND1      C380      1000
 UP BND1      C381      1000
 UP BND1      C382      1000
 UP BND1      C383      1000
ENDATA
